(set-info :smt-lib-version 2.6)
(set-logic QF_LRA)
(set-info :source |
Fully parameterized specification and verification of a synchronizer   
circuit modeling metastability at various levels of refinement.     
A paper describing this specification, to be published in Designing     
Correct Circuits (DCC), 2006, is available from the authors.            

Geoffrey Brown, Indiana University <geobrown@cs.indiana.edu>
Lee Pike, Galois Connections, Inc. <leepike@galois.com>

Translated into CVC format by Leonardo de Moura.

This benchmark was automatically translated into SMT-LIB format from
CVC format using CVC Lite

|)
(set-info :category "industrial")
(set-info :status sat)
(declare-fun x_0 () Bool)
(declare-fun x_1 () Bool)
(declare-fun x_2 () Real)
(declare-fun x_3 () Real)
(declare-fun x_4 () Bool)
(declare-fun x_5 () Bool)
(declare-fun x_6 () Real)
(declare-fun x_7 () Real)
(declare-fun x_8 () Bool)
(declare-fun x_9 () Bool)
(declare-fun x_10 () Real)
(declare-fun x_11 () Real)
(declare-fun x_12 () Bool)
(declare-fun x_13 () Bool)
(declare-fun x_14 () Real)
(declare-fun x_15 () Real)
(declare-fun x_16 () Bool)
(declare-fun x_17 () Bool)
(declare-fun x_18 () Real)
(declare-fun x_19 () Real)
(declare-fun x_20 () Bool)
(declare-fun x_21 () Bool)
(declare-fun x_22 () Real)
(declare-fun x_23 () Real)
(declare-fun x_24 () Bool)
(declare-fun x_25 () Bool)
(declare-fun x_26 () Real)
(declare-fun x_27 () Real)
(declare-fun x_28 () Bool)
(declare-fun x_29 () Bool)
(declare-fun x_30 () Real)
(declare-fun x_31 () Real)
(declare-fun x_32 () Bool)
(declare-fun x_33 () Bool)
(declare-fun x_34 () Real)
(declare-fun x_35 () Real)
(declare-fun x_36 () Bool)
(declare-fun x_37 () Bool)
(declare-fun x_38 () Real)
(declare-fun x_39 () Real)
(declare-fun x_40 () Bool)
(declare-fun x_41 () Bool)
(declare-fun x_42 () Real)
(declare-fun x_43 () Real)
(declare-fun x_44 () Bool)
(declare-fun x_45 () Bool)
(declare-fun x_46 () Real)
(declare-fun x_47 () Real)
(declare-fun x_48 () Bool)
(declare-fun x_49 () Bool)
(declare-fun x_50 () Real)
(declare-fun x_51 () Real)
(declare-fun x_52 () Bool)
(declare-fun x_53 () Bool)
(declare-fun x_54 () Real)
(declare-fun x_55 () Real)
(declare-fun x_56 () Real)
(declare-fun x_57 () Real)
(declare-fun x_58 () Real)
(declare-fun x_59 () Real)
(declare-fun x_60 () Real)
(declare-fun x_61 () Real)
(declare-fun x_62 () Real)
(declare-fun x_63 () Real)
(declare-fun x_64 () Real)
(declare-fun x_65 () Real)
(declare-fun x_66 () Bool)
(declare-fun x_67 () Bool)
(declare-fun x_68 () Real)
(declare-fun x_69 () Real)
(declare-fun x_70 () Real)
(declare-fun x_71 () Real)
(declare-fun x_72 () Bool)
(declare-fun x_73 () Bool)
(declare-fun x_74 () Bool)
(declare-fun x_75 () Bool)
(declare-fun x_76 () Bool)
(declare-fun x_77 () Real)
(declare-fun x_78 () Bool)
(declare-fun x_79 () Real)
(declare-fun x_80 () Real)
(declare-fun x_81 () Real)
(declare-fun x_82 () Real)
(declare-fun x_83 () Real)
(declare-fun x_84 () Real)
(declare-fun x_85 () Real)
(declare-fun x_86 () Real)
(declare-fun x_87 () Real)
(declare-fun x_88 () Bool)
(declare-fun x_89 () Real)
(declare-fun x_90 () Bool)
(declare-fun x_91 () Bool)
(declare-fun x_92 () Real)
(declare-fun x_93 () Bool)
(declare-fun x_94 () Real)
(declare-fun x_95 () Real)
(declare-fun x_96 () Real)
(declare-fun x_97 () Real)
(declare-fun x_98 () Real)
(declare-fun x_99 () Real)
(declare-fun x_100 () Real)
(declare-fun x_101 () Real)
(declare-fun x_102 () Bool)
(declare-fun x_103 () Real)
(declare-fun x_104 () Bool)
(declare-fun x_105 () Bool)
(declare-fun x_106 () Real)
(declare-fun x_107 () Bool)
(declare-fun x_108 () Real)
(declare-fun x_109 () Real)
(declare-fun x_110 () Real)
(declare-fun x_111 () Real)
(declare-fun x_112 () Real)
(declare-fun x_113 () Real)
(declare-fun x_114 () Real)
(declare-fun x_115 () Real)
(declare-fun x_116 () Bool)
(declare-fun x_117 () Real)
(declare-fun x_118 () Bool)
(declare-fun x_119 () Bool)
(declare-fun x_120 () Real)
(declare-fun x_121 () Bool)
(declare-fun x_122 () Real)
(declare-fun x_123 () Real)
(declare-fun x_124 () Real)
(declare-fun x_125 () Real)
(declare-fun x_126 () Real)
(declare-fun x_127 () Real)
(declare-fun x_128 () Real)
(declare-fun x_129 () Real)
(declare-fun x_130 () Bool)
(declare-fun x_131 () Real)
(declare-fun x_132 () Bool)
(declare-fun x_133 () Bool)
(declare-fun x_134 () Real)
(declare-fun x_135 () Bool)
(declare-fun x_136 () Real)
(declare-fun x_137 () Real)
(declare-fun x_138 () Real)
(declare-fun x_139 () Real)
(declare-fun x_140 () Real)
(declare-fun x_141 () Real)
(declare-fun x_142 () Real)
(declare-fun x_143 () Real)
(declare-fun x_144 () Bool)
(declare-fun x_145 () Real)
(declare-fun x_146 () Bool)
(declare-fun x_147 () Bool)
(declare-fun x_148 () Real)
(declare-fun x_149 () Bool)
(declare-fun x_150 () Real)
(declare-fun x_151 () Real)
(declare-fun x_152 () Real)
(declare-fun x_153 () Real)
(declare-fun x_154 () Real)
(declare-fun x_155 () Real)
(declare-fun x_156 () Real)
(declare-fun x_157 () Real)
(declare-fun x_158 () Bool)
(declare-fun x_159 () Real)
(declare-fun x_160 () Bool)
(declare-fun x_161 () Bool)
(declare-fun x_162 () Real)
(declare-fun x_163 () Bool)
(declare-fun x_164 () Real)
(declare-fun x_165 () Real)
(declare-fun x_166 () Real)
(declare-fun x_167 () Real)
(declare-fun x_168 () Real)
(declare-fun x_169 () Real)
(declare-fun x_170 () Real)
(declare-fun x_171 () Real)
(declare-fun x_172 () Bool)
(declare-fun x_173 () Real)
(declare-fun x_174 () Bool)
(declare-fun x_175 () Bool)
(declare-fun x_176 () Real)
(declare-fun x_177 () Bool)
(declare-fun x_178 () Real)
(declare-fun x_179 () Real)
(declare-fun x_180 () Real)
(declare-fun x_181 () Real)
(declare-fun x_182 () Real)
(declare-fun x_183 () Real)
(declare-fun x_184 () Real)
(declare-fun x_185 () Real)
(declare-fun x_186 () Bool)
(declare-fun x_187 () Real)
(declare-fun x_188 () Bool)
(declare-fun x_189 () Bool)
(declare-fun x_190 () Real)
(declare-fun x_191 () Bool)
(declare-fun x_192 () Real)
(declare-fun x_193 () Real)
(declare-fun x_194 () Real)
(declare-fun x_195 () Real)
(declare-fun x_196 () Real)
(declare-fun x_197 () Real)
(declare-fun x_198 () Real)
(declare-fun x_199 () Real)
(declare-fun x_200 () Bool)
(declare-fun x_201 () Real)
(declare-fun x_202 () Bool)
(declare-fun x_203 () Bool)
(declare-fun x_204 () Real)
(declare-fun x_205 () Bool)
(declare-fun x_206 () Real)
(declare-fun x_207 () Real)
(declare-fun x_208 () Real)
(declare-fun x_209 () Real)
(declare-fun x_210 () Real)
(declare-fun x_211 () Real)
(declare-fun x_212 () Real)
(declare-fun x_213 () Real)
(declare-fun x_214 () Bool)
(declare-fun x_215 () Real)
(declare-fun x_216 () Bool)
(declare-fun x_217 () Bool)
(declare-fun x_218 () Real)
(declare-fun x_219 () Bool)
(declare-fun x_220 () Real)
(declare-fun x_221 () Real)
(declare-fun x_222 () Real)
(declare-fun x_223 () Real)
(declare-fun x_224 () Real)
(declare-fun x_225 () Real)
(declare-fun x_226 () Real)
(declare-fun x_227 () Real)
(declare-fun x_228 () Bool)
(declare-fun x_229 () Real)
(declare-fun x_230 () Bool)
(declare-fun x_231 () Bool)
(declare-fun x_232 () Real)
(declare-fun x_233 () Bool)
(declare-fun x_234 () Real)
(declare-fun x_235 () Real)
(declare-fun x_236 () Real)
(declare-fun x_237 () Real)
(declare-fun x_238 () Real)
(declare-fun x_239 () Real)
(declare-fun x_240 () Real)
(declare-fun x_241 () Real)
(declare-fun x_242 () Bool)
(declare-fun x_243 () Real)
(declare-fun x_244 () Bool)
(declare-fun x_245 () Bool)
(declare-fun x_246 () Real)
(declare-fun x_247 () Bool)
(declare-fun x_248 () Real)
(declare-fun x_249 () Real)
(declare-fun x_250 () Real)
(declare-fun x_251 () Real)
(declare-fun x_252 () Real)
(declare-fun x_253 () Real)
(declare-fun x_254 () Real)
(declare-fun x_255 () Real)
(declare-fun x_256 () Bool)
(declare-fun x_257 () Real)
(declare-fun x_258 () Real)
(declare-fun x_259 () Bool)
(declare-fun x_260 () Bool)
(declare-fun x_261 () Bool)
(declare-fun x_262 () Bool)
(declare-fun x_263 () Real)
(declare-fun x_264 () Bool)
(declare-fun x_265 () Real)
(declare-fun x_266 () Real)
(declare-fun x_267 () Real)
(declare-fun x_268 () Real)
(assert (let ((?v_175 (= x_56 x_57)) (?v_176 (= x_58 x_59)) (?v_177 (= x_60 x_61)) (?v_173 (= x_62 x_63))) (let ((?v_178 (not ?v_173)) (?v_181 (= x_64 x_65)) (?v_170 (= x_66 x_67)) (?v_171 (= x_7 x_3)) (?v_174 (ite (<= x_58 x_62) x_58 x_62)) (?v_169 (ite (<= x_62 x_58) x_62 x_58)) (?v_162 (= x_83 x_56)) (?v_163 (= x_59 x_84)) (?v_164 (= x_85 x_60)) (?v_160 (= x_63 x_86))) (let ((?v_165 (not ?v_160)) (?v_168 (= x_87 x_64)) (?v_157 (= x_88 x_66)) (?v_158 (= x_11 x_7)) (?v_161 (ite (<= x_59 x_63) x_59 x_63)) (?v_156 (ite (<= x_63 x_59) x_63 x_59)) (?v_149 (= x_97 x_83)) (?v_150 (= x_84 x_98)) (?v_151 (= x_99 x_85)) (?v_147 (= x_86 x_100))) (let ((?v_152 (not ?v_147)) (?v_155 (= x_101 x_87)) (?v_144 (= x_102 x_88)) (?v_145 (= x_15 x_11)) (?v_148 (ite (<= x_84 x_86) x_84 x_86)) (?v_143 (ite (<= x_86 x_84) x_86 x_84)) (?v_136 (= x_111 x_97)) (?v_137 (= x_98 x_112)) (?v_138 (= x_113 x_99)) (?v_134 (= x_100 x_114))) (let ((?v_139 (not ?v_134)) (?v_142 (= x_115 x_101)) (?v_131 (= x_116 x_102)) (?v_132 (= x_19 x_15)) (?v_135 (ite (<= x_98 x_100) x_98 x_100)) (?v_130 (ite (<= x_100 x_98) x_100 x_98)) (?v_123 (= x_125 x_111)) (?v_124 (= x_112 x_126)) (?v_125 (= x_127 x_113)) (?v_121 (= x_114 x_128))) (let ((?v_126 (not ?v_121)) (?v_129 (= x_129 x_115)) (?v_118 (= x_130 x_116)) (?v_119 (= x_23 x_19)) (?v_122 (ite (<= x_112 x_114) x_112 x_114)) (?v_117 (ite (<= x_114 x_112) x_114 x_112)) (?v_110 (= x_139 x_125)) (?v_111 (= x_126 x_140)) (?v_112 (= x_141 x_127)) (?v_108 (= x_128 x_142))) (let ((?v_113 (not ?v_108)) (?v_116 (= x_143 x_129)) (?v_105 (= x_144 x_130)) (?v_106 (= x_27 x_23)) (?v_109 (ite (<= x_126 x_128) x_126 x_128)) (?v_104 (ite (<= x_128 x_126) x_128 x_126)) (?v_97 (= x_153 x_139)) (?v_98 (= x_140 x_154)) (?v_99 (= x_155 x_141)) (?v_95 (= x_142 x_156))) (let ((?v_100 (not ?v_95)) (?v_103 (= x_157 x_143)) (?v_92 (= x_158 x_144)) (?v_93 (= x_31 x_27)) (?v_96 (ite (<= x_140 x_142) x_140 x_142)) (?v_91 (ite (<= x_142 x_140) x_142 x_140)) (?v_84 (= x_167 x_153)) (?v_85 (= x_154 x_168)) (?v_86 (= x_169 x_155)) (?v_82 (= x_156 x_170))) (let ((?v_87 (not ?v_82)) (?v_90 (= x_171 x_157)) (?v_79 (= x_172 x_158)) (?v_80 (= x_35 x_31)) (?v_83 (ite (<= x_154 x_156) x_154 x_156)) (?v_78 (ite (<= x_156 x_154) x_156 x_154)) (?v_71 (= x_181 x_167)) (?v_72 (= x_168 x_182)) (?v_73 (= x_183 x_169)) (?v_69 (= x_170 x_184))) (let ((?v_74 (not ?v_69)) (?v_77 (= x_185 x_171)) (?v_66 (= x_186 x_172)) (?v_67 (= x_39 x_35)) (?v_70 (ite (<= x_168 x_170) x_168 x_170)) (?v_65 (ite (<= x_170 x_168) x_170 x_168)) (?v_58 (= x_195 x_181)) (?v_59 (= x_182 x_196)) (?v_60 (= x_197 x_183)) (?v_56 (= x_184 x_198))) (let ((?v_61 (not ?v_56)) (?v_64 (= x_199 x_185)) (?v_53 (= x_200 x_186)) (?v_54 (= x_43 x_39)) (?v_57 (ite (<= x_182 x_184) x_182 x_184)) (?v_52 (ite (<= x_184 x_182) x_184 x_182)) (?v_45 (= x_209 x_195)) (?v_46 (= x_196 x_210)) (?v_47 (= x_211 x_197)) (?v_43 (= x_198 x_212))) (let ((?v_48 (not ?v_43)) (?v_51 (= x_213 x_199)) (?v_40 (= x_214 x_200)) (?v_41 (= x_47 x_43)) (?v_44 (ite (<= x_196 x_198) x_196 x_198)) (?v_39 (ite (<= x_198 x_196) x_198 x_196)) (?v_32 (= x_223 x_209)) (?v_33 (= x_210 x_224)) (?v_34 (= x_225 x_211)) (?v_30 (= x_212 x_226))) (let ((?v_35 (not ?v_30)) (?v_38 (= x_227 x_213)) (?v_27 (= x_228 x_214)) (?v_28 (= x_51 x_47)) (?v_31 (ite (<= x_210 x_212) x_210 x_212)) (?v_26 (ite (<= x_212 x_210) x_212 x_210)) (?v_19 (= x_237 x_223)) (?v_20 (= x_224 x_238)) (?v_21 (= x_239 x_225)) (?v_17 (= x_226 x_240))) (let ((?v_22 (not ?v_17)) (?v_25 (= x_241 x_227)) (?v_14 (= x_242 x_228)) (?v_15 (= x_55 x_51)) (?v_18 (ite (<= x_224 x_226) x_224 x_226)) (?v_13 (ite (<= x_226 x_224) x_226 x_224)) (?v_6 (= x_251 x_237)) (?v_7 (= x_238 x_252)) (?v_8 (= x_253 x_239)) (?v_4 (= x_240 x_254))) (let ((?v_9 (not ?v_4)) (?v_12 (= x_255 x_241)) (?v_1 (= x_256 x_242)) (?v_2 (= x_257 x_55)) (?v_5 (ite (<= x_238 x_240) x_238 x_240)) (?v_0 (ite (<= x_240 x_238) x_240 x_238)) (?v_3 (= x_260 x_53)) (?v_11 (= x_55 x_257)) (?v_16 (= x_53 x_49)) (?v_24 (= x_51 x_55)) (?v_29 (= x_49 x_45)) (?v_37 (= x_47 x_51)) (?v_42 (= x_45 x_41)) (?v_50 (= x_43 x_47)) (?v_55 (= x_41 x_37)) (?v_63 (= x_39 x_43)) (?v_68 (= x_37 x_33)) (?v_76 (= x_35 x_39)) (?v_81 (= x_33 x_29)) (?v_89 (= x_31 x_35)) (?v_94 (= x_29 x_25)) (?v_102 (= x_27 x_31)) (?v_107 (= x_25 x_21)) (?v_115 (= x_23 x_27)) (?v_120 (= x_21 x_17)) (?v_128 (= x_19 x_23)) (?v_133 (= x_17 x_13)) (?v_141 (= x_15 x_19)) (?v_146 (= x_13 x_9)) (?v_154 (= x_11 x_15)) (?v_159 (= x_9 x_5)) (?v_167 (= x_7 x_11)) (?v_172 (= x_5 x_1)) (?v_180 (= x_3 x_7))) (let ((?v_10 (+ ?v_5 x_70)) (?v_23 (+ ?v_18 x_70)) (?v_36 (+ ?v_31 x_70)) (?v_49 (+ ?v_44 x_70)) (?v_62 (+ ?v_57 x_70)) (?v_75 (+ ?v_70 x_70)) (?v_88 (+ ?v_83 x_70)) (?v_101 (+ ?v_96 x_70)) (?v_114 (+ ?v_109 x_70)) (?v_127 (+ ?v_122 x_70)) (?v_140 (+ ?v_135 x_70)) (?v_153 (+ ?v_148 x_70)) (?v_166 (+ ?v_161 x_70)) (?v_179 (+ ?v_174 x_70))) (and (and (and (and (and (and (and (and (and (and (and (and (and (and (and (and (and (and (and (and (and (and (and (and (and (and (and (and (and (and (and (and (and (and (and (and (and (and (and (and (and (and (and (and (and (and (and (and (and (and (and (and (and (and (and (and (and (and (and (and (and (and (and (and (and (and (and (and (and (and (and (and (and (and (and (and (and (and (and (> x_68 0) (> x_69 0)) (>= x_70 0)) (< x_70 x_68)) (< x_70 x_69)) (>= x_81 0)) (< x_81 x_68)) (< x_81 x_69)) (or (= x_52 x_53) (= x_54 x_55))) (or (= x_48 x_49) (= x_50 x_51))) (or (= x_44 x_45) (= x_46 x_47))) (or (= x_40 x_41) (= x_42 x_43))) (or (= x_36 x_37) (= x_38 x_39))) (or (= x_32 x_33) (= x_34 x_35))) (or (= x_28 x_29) (= x_30 x_31))) (or (= x_24 x_25) (= x_26 x_27))) (or (= x_20 x_21) (= x_22 x_23))) (or (= x_16 x_17) (= x_18 x_19))) (or (= x_12 x_13) (= x_14 x_15))) (or (= x_8 x_9) (= x_10 x_11))) (or (= x_4 x_5) (= x_6 x_7))) (or (= x_0 x_1) (= x_2 x_3))) (or (and (and (and (and (and (and (and (and (and (= x_258 0) (= x_259 x_247)) (= ?v_0 x_240)) (<= (+ ?v_0 x_68) x_254)) (or ?v_3 (= x_260 x_52))) (= x_261 x_244)) (= x_262 x_245)) (= x_252 x_238)) ?v_1) ?v_2) (and (and (and (and (and (and (and (and (and (= x_258 1) (= x_262 x_244)) (= ?v_0 x_238)) (<= (+ ?v_0 x_69) x_252)) (or (and (and (= x_263 0) ?v_1) ?v_2) (and (and (= x_263 1) (= x_242 x_245)) (= x_256 (not x_242))))) (= x_264 x_247)) (= x_259 x_52)) (= x_265 x_54)) (= x_254 x_240)) ?v_3))) (or (or (and (and (and (= x_266 0) ?v_9) (or (not (<= x_237 ?v_5)) (= x_264 x_242))) ?v_6) (and (and (and (= x_266 1) ?v_4) (xor x_242 x_256)) (= x_251 ?v_10))) (and (and (and (= x_266 2) ?v_4) (= x_242 x_256)) ?v_6))) (or (or (and (and (and (= x_267 0) (not ?v_7)) (or (not (<= x_239 ?v_0)) (= x_261 x_53))) ?v_8) (and (and (and (= x_267 1) ?v_7) (xor x_53 x_260)) (= x_253 (+ ?v_0 x_81)))) (and (and (and (= x_267 2) ?v_7) (= x_53 x_260)) ?v_8))) (or (or (and (and (and (= x_268 0) ?v_9) (or (not (<= x_241 ?v_5)) (= x_265 x_55))) ?v_12) (and (and (and (= x_268 1) ?v_4) (not ?v_11)) (= x_255 ?v_10))) (and (and (and (= x_268 2) ?v_4) ?v_11) ?v_12))) (or (and (and (and (and (and (and (and (and (and (= x_243 0) (= x_52 x_233)) (= ?v_13 x_226)) (<= (+ ?v_13 x_68) x_240)) (or ?v_16 (= x_53 x_48))) (= x_244 x_230)) (= x_245 x_231)) (= x_238 x_224)) ?v_14) ?v_15) (and (and (and (and (and (and (and (and (and (= x_243 1) (= x_245 x_230)) (= ?v_13 x_224)) (<= (+ ?v_13 x_69) x_238)) (or (and (and (= x_246 0) ?v_14) ?v_15) (and (and (= x_246 1) (= x_228 x_231)) (= x_242 (not x_228))))) (= x_247 x_233)) (= x_52 x_48)) (= x_54 x_50)) (= x_240 x_226)) ?v_16))) (or (or (and (and (and (= x_248 0) ?v_22) (or (not (<= x_223 ?v_18)) (= x_247 x_228))) ?v_19) (and (and (and (= x_248 1) ?v_17) (xor x_228 x_242)) (= x_237 ?v_23))) (and (and (and (= x_248 2) ?v_17) (= x_228 x_242)) ?v_19))) (or (or (and (and (and (= x_249 0) (not ?v_20)) (or (not (<= x_225 ?v_13)) (= x_244 x_49))) ?v_21) (and (and (and (= x_249 1) ?v_20) (xor x_49 x_53)) (= x_239 (+ ?v_13 x_81)))) (and (and (and (= x_249 2) ?v_20) (= x_49 x_53)) ?v_21))) (or (or (and (and (and (= x_250 0) ?v_22) (or (not (<= x_227 ?v_18)) (= x_54 x_51))) ?v_25) (and (and (and (= x_250 1) ?v_17) (not ?v_24)) (= x_241 ?v_23))) (and (and (and (= x_250 2) ?v_17) ?v_24) ?v_25))) (or (and (and (and (and (and (and (and (and (and (= x_229 0) (= x_48 x_219)) (= ?v_26 x_212)) (<= (+ ?v_26 x_68) x_226)) (or ?v_29 (= x_49 x_44))) (= x_230 x_216)) (= x_231 x_217)) (= x_224 x_210)) ?v_27) ?v_28) (and (and (and (and (and (and (and (and (and (= x_229 1) (= x_231 x_216)) (= ?v_26 x_210)) (<= (+ ?v_26 x_69) x_224)) (or (and (and (= x_232 0) ?v_27) ?v_28) (and (and (= x_232 1) (= x_214 x_217)) (= x_228 (not x_214))))) (= x_233 x_219)) (= x_48 x_44)) (= x_50 x_46)) (= x_226 x_212)) ?v_29))) (or (or (and (and (and (= x_234 0) ?v_35) (or (not (<= x_209 ?v_31)) (= x_233 x_214))) ?v_32) (and (and (and (= x_234 1) ?v_30) (xor x_214 x_228)) (= x_223 ?v_36))) (and (and (and (= x_234 2) ?v_30) (= x_214 x_228)) ?v_32))) (or (or (and (and (and (= x_235 0) (not ?v_33)) (or (not (<= x_211 ?v_26)) (= x_230 x_45))) ?v_34) (and (and (and (= x_235 1) ?v_33) (xor x_45 x_49)) (= x_225 (+ ?v_26 x_81)))) (and (and (and (= x_235 2) ?v_33) (= x_45 x_49)) ?v_34))) (or (or (and (and (and (= x_236 0) ?v_35) (or (not (<= x_213 ?v_31)) (= x_50 x_47))) ?v_38) (and (and (and (= x_236 1) ?v_30) (not ?v_37)) (= x_227 ?v_36))) (and (and (and (= x_236 2) ?v_30) ?v_37) ?v_38))) (or (and (and (and (and (and (and (and (and (and (= x_215 0) (= x_44 x_205)) (= ?v_39 x_198)) (<= (+ ?v_39 x_68) x_212)) (or ?v_42 (= x_45 x_40))) (= x_216 x_202)) (= x_217 x_203)) (= x_210 x_196)) ?v_40) ?v_41) (and (and (and (and (and (and (and (and (and (= x_215 1) (= x_217 x_202)) (= ?v_39 x_196)) (<= (+ ?v_39 x_69) x_210)) (or (and (and (= x_218 0) ?v_40) ?v_41) (and (and (= x_218 1) (= x_200 x_203)) (= x_214 (not x_200))))) (= x_219 x_205)) (= x_44 x_40)) (= x_46 x_42)) (= x_212 x_198)) ?v_42))) (or (or (and (and (and (= x_220 0) ?v_48) (or (not (<= x_195 ?v_44)) (= x_219 x_200))) ?v_45) (and (and (and (= x_220 1) ?v_43) (xor x_200 x_214)) (= x_209 ?v_49))) (and (and (and (= x_220 2) ?v_43) (= x_200 x_214)) ?v_45))) (or (or (and (and (and (= x_221 0) (not ?v_46)) (or (not (<= x_197 ?v_39)) (= x_216 x_41))) ?v_47) (and (and (and (= x_221 1) ?v_46) (xor x_41 x_45)) (= x_211 (+ ?v_39 x_81)))) (and (and (and (= x_221 2) ?v_46) (= x_41 x_45)) ?v_47))) (or (or (and (and (and (= x_222 0) ?v_48) (or (not (<= x_199 ?v_44)) (= x_46 x_43))) ?v_51) (and (and (and (= x_222 1) ?v_43) (not ?v_50)) (= x_213 ?v_49))) (and (and (and (= x_222 2) ?v_43) ?v_50) ?v_51))) (or (and (and (and (and (and (and (and (and (and (= x_201 0) (= x_40 x_191)) (= ?v_52 x_184)) (<= (+ ?v_52 x_68) x_198)) (or ?v_55 (= x_41 x_36))) (= x_202 x_188)) (= x_203 x_189)) (= x_196 x_182)) ?v_53) ?v_54) (and (and (and (and (and (and (and (and (and (= x_201 1) (= x_203 x_188)) (= ?v_52 x_182)) (<= (+ ?v_52 x_69) x_196)) (or (and (and (= x_204 0) ?v_53) ?v_54) (and (and (= x_204 1) (= x_186 x_189)) (= x_200 (not x_186))))) (= x_205 x_191)) (= x_40 x_36)) (= x_42 x_38)) (= x_198 x_184)) ?v_55))) (or (or (and (and (and (= x_206 0) ?v_61) (or (not (<= x_181 ?v_57)) (= x_205 x_186))) ?v_58) (and (and (and (= x_206 1) ?v_56) (xor x_186 x_200)) (= x_195 ?v_62))) (and (and (and (= x_206 2) ?v_56) (= x_186 x_200)) ?v_58))) (or (or (and (and (and (= x_207 0) (not ?v_59)) (or (not (<= x_183 ?v_52)) (= x_202 x_37))) ?v_60) (and (and (and (= x_207 1) ?v_59) (xor x_37 x_41)) (= x_197 (+ ?v_52 x_81)))) (and (and (and (= x_207 2) ?v_59) (= x_37 x_41)) ?v_60))) (or (or (and (and (and (= x_208 0) ?v_61) (or (not (<= x_185 ?v_57)) (= x_42 x_39))) ?v_64) (and (and (and (= x_208 1) ?v_56) (not ?v_63)) (= x_199 ?v_62))) (and (and (and (= x_208 2) ?v_56) ?v_63) ?v_64))) (or (and (and (and (and (and (and (and (and (and (= x_187 0) (= x_36 x_177)) (= ?v_65 x_170)) (<= (+ ?v_65 x_68) x_184)) (or ?v_68 (= x_37 x_32))) (= x_188 x_174)) (= x_189 x_175)) (= x_182 x_168)) ?v_66) ?v_67) (and (and (and (and (and (and (and (and (and (= x_187 1) (= x_189 x_174)) (= ?v_65 x_168)) (<= (+ ?v_65 x_69) x_182)) (or (and (and (= x_190 0) ?v_66) ?v_67) (and (and (= x_190 1) (= x_172 x_175)) (= x_186 (not x_172))))) (= x_191 x_177)) (= x_36 x_32)) (= x_38 x_34)) (= x_184 x_170)) ?v_68))) (or (or (and (and (and (= x_192 0) ?v_74) (or (not (<= x_167 ?v_70)) (= x_191 x_172))) ?v_71) (and (and (and (= x_192 1) ?v_69) (xor x_172 x_186)) (= x_181 ?v_75))) (and (and (and (= x_192 2) ?v_69) (= x_172 x_186)) ?v_71))) (or (or (and (and (and (= x_193 0) (not ?v_72)) (or (not (<= x_169 ?v_65)) (= x_188 x_33))) ?v_73) (and (and (and (= x_193 1) ?v_72) (xor x_33 x_37)) (= x_183 (+ ?v_65 x_81)))) (and (and (and (= x_193 2) ?v_72) (= x_33 x_37)) ?v_73))) (or (or (and (and (and (= x_194 0) ?v_74) (or (not (<= x_171 ?v_70)) (= x_38 x_35))) ?v_77) (and (and (and (= x_194 1) ?v_69) (not ?v_76)) (= x_185 ?v_75))) (and (and (and (= x_194 2) ?v_69) ?v_76) ?v_77))) (or (and (and (and (and (and (and (and (and (and (= x_173 0) (= x_32 x_163)) (= ?v_78 x_156)) (<= (+ ?v_78 x_68) x_170)) (or ?v_81 (= x_33 x_28))) (= x_174 x_160)) (= x_175 x_161)) (= x_168 x_154)) ?v_79) ?v_80) (and (and (and (and (and (and (and (and (and (= x_173 1) (= x_175 x_160)) (= ?v_78 x_154)) (<= (+ ?v_78 x_69) x_168)) (or (and (and (= x_176 0) ?v_79) ?v_80) (and (and (= x_176 1) (= x_158 x_161)) (= x_172 (not x_158))))) (= x_177 x_163)) (= x_32 x_28)) (= x_34 x_30)) (= x_170 x_156)) ?v_81))) (or (or (and (and (and (= x_178 0) ?v_87) (or (not (<= x_153 ?v_83)) (= x_177 x_158))) ?v_84) (and (and (and (= x_178 1) ?v_82) (xor x_158 x_172)) (= x_167 ?v_88))) (and (and (and (= x_178 2) ?v_82) (= x_158 x_172)) ?v_84))) (or (or (and (and (and (= x_179 0) (not ?v_85)) (or (not (<= x_155 ?v_78)) (= x_174 x_29))) ?v_86) (and (and (and (= x_179 1) ?v_85) (xor x_29 x_33)) (= x_169 (+ ?v_78 x_81)))) (and (and (and (= x_179 2) ?v_85) (= x_29 x_33)) ?v_86))) (or (or (and (and (and (= x_180 0) ?v_87) (or (not (<= x_157 ?v_83)) (= x_34 x_31))) ?v_90) (and (and (and (= x_180 1) ?v_82) (not ?v_89)) (= x_171 ?v_88))) (and (and (and (= x_180 2) ?v_82) ?v_89) ?v_90))) (or (and (and (and (and (and (and (and (and (and (= x_159 0) (= x_28 x_149)) (= ?v_91 x_142)) (<= (+ ?v_91 x_68) x_156)) (or ?v_94 (= x_29 x_24))) (= x_160 x_146)) (= x_161 x_147)) (= x_154 x_140)) ?v_92) ?v_93) (and (and (and (and (and (and (and (and (and (= x_159 1) (= x_161 x_146)) (= ?v_91 x_140)) (<= (+ ?v_91 x_69) x_154)) (or (and (and (= x_162 0) ?v_92) ?v_93) (and (and (= x_162 1) (= x_144 x_147)) (= x_158 (not x_144))))) (= x_163 x_149)) (= x_28 x_24)) (= x_30 x_26)) (= x_156 x_142)) ?v_94))) (or (or (and (and (and (= x_164 0) ?v_100) (or (not (<= x_139 ?v_96)) (= x_163 x_144))) ?v_97) (and (and (and (= x_164 1) ?v_95) (xor x_144 x_158)) (= x_153 ?v_101))) (and (and (and (= x_164 2) ?v_95) (= x_144 x_158)) ?v_97))) (or (or (and (and (and (= x_165 0) (not ?v_98)) (or (not (<= x_141 ?v_91)) (= x_160 x_25))) ?v_99) (and (and (and (= x_165 1) ?v_98) (xor x_25 x_29)) (= x_155 (+ ?v_91 x_81)))) (and (and (and (= x_165 2) ?v_98) (= x_25 x_29)) ?v_99))) (or (or (and (and (and (= x_166 0) ?v_100) (or (not (<= x_143 ?v_96)) (= x_30 x_27))) ?v_103) (and (and (and (= x_166 1) ?v_95) (not ?v_102)) (= x_157 ?v_101))) (and (and (and (= x_166 2) ?v_95) ?v_102) ?v_103))) (or (and (and (and (and (and (and (and (and (and (= x_145 0) (= x_24 x_135)) (= ?v_104 x_128)) (<= (+ ?v_104 x_68) x_142)) (or ?v_107 (= x_25 x_20))) (= x_146 x_132)) (= x_147 x_133)) (= x_140 x_126)) ?v_105) ?v_106) (and (and (and (and (and (and (and (and (and (= x_145 1) (= x_147 x_132)) (= ?v_104 x_126)) (<= (+ ?v_104 x_69) x_140)) (or (and (and (= x_148 0) ?v_105) ?v_106) (and (and (= x_148 1) (= x_130 x_133)) (= x_144 (not x_130))))) (= x_149 x_135)) (= x_24 x_20)) (= x_26 x_22)) (= x_142 x_128)) ?v_107))) (or (or (and (and (and (= x_150 0) ?v_113) (or (not (<= x_125 ?v_109)) (= x_149 x_130))) ?v_110) (and (and (and (= x_150 1) ?v_108) (xor x_130 x_144)) (= x_139 ?v_114))) (and (and (and (= x_150 2) ?v_108) (= x_130 x_144)) ?v_110))) (or (or (and (and (and (= x_151 0) (not ?v_111)) (or (not (<= x_127 ?v_104)) (= x_146 x_21))) ?v_112) (and (and (and (= x_151 1) ?v_111) (xor x_21 x_25)) (= x_141 (+ ?v_104 x_81)))) (and (and (and (= x_151 2) ?v_111) (= x_21 x_25)) ?v_112))) (or (or (and (and (and (= x_152 0) ?v_113) (or (not (<= x_129 ?v_109)) (= x_26 x_23))) ?v_116) (and (and (and (= x_152 1) ?v_108) (not ?v_115)) (= x_143 ?v_114))) (and (and (and (= x_152 2) ?v_108) ?v_115) ?v_116))) (or (and (and (and (and (and (and (and (and (and (= x_131 0) (= x_20 x_121)) (= ?v_117 x_114)) (<= (+ ?v_117 x_68) x_128)) (or ?v_120 (= x_21 x_16))) (= x_132 x_118)) (= x_133 x_119)) (= x_126 x_112)) ?v_118) ?v_119) (and (and (and (and (and (and (and (and (and (= x_131 1) (= x_133 x_118)) (= ?v_117 x_112)) (<= (+ ?v_117 x_69) x_126)) (or (and (and (= x_134 0) ?v_118) ?v_119) (and (and (= x_134 1) (= x_116 x_119)) (= x_130 (not x_116))))) (= x_135 x_121)) (= x_20 x_16)) (= x_22 x_18)) (= x_128 x_114)) ?v_120))) (or (or (and (and (and (= x_136 0) ?v_126) (or (not (<= x_111 ?v_122)) (= x_135 x_116))) ?v_123) (and (and (and (= x_136 1) ?v_121) (xor x_116 x_130)) (= x_125 ?v_127))) (and (and (and (= x_136 2) ?v_121) (= x_116 x_130)) ?v_123))) (or (or (and (and (and (= x_137 0) (not ?v_124)) (or (not (<= x_113 ?v_117)) (= x_132 x_17))) ?v_125) (and (and (and (= x_137 1) ?v_124) (xor x_17 x_21)) (= x_127 (+ ?v_117 x_81)))) (and (and (and (= x_137 2) ?v_124) (= x_17 x_21)) ?v_125))) (or (or (and (and (and (= x_138 0) ?v_126) (or (not (<= x_115 ?v_122)) (= x_22 x_19))) ?v_129) (and (and (and (= x_138 1) ?v_121) (not ?v_128)) (= x_129 ?v_127))) (and (and (and (= x_138 2) ?v_121) ?v_128) ?v_129))) (or (and (and (and (and (and (and (and (and (and (= x_117 0) (= x_16 x_107)) (= ?v_130 x_100)) (<= (+ ?v_130 x_68) x_114)) (or ?v_133 (= x_17 x_12))) (= x_118 x_104)) (= x_119 x_105)) (= x_112 x_98)) ?v_131) ?v_132) (and (and (and (and (and (and (and (and (and (= x_117 1) (= x_119 x_104)) (= ?v_130 x_98)) (<= (+ ?v_130 x_69) x_112)) (or (and (and (= x_120 0) ?v_131) ?v_132) (and (and (= x_120 1) (= x_102 x_105)) (= x_116 (not x_102))))) (= x_121 x_107)) (= x_16 x_12)) (= x_18 x_14)) (= x_114 x_100)) ?v_133))) (or (or (and (and (and (= x_122 0) ?v_139) (or (not (<= x_97 ?v_135)) (= x_121 x_102))) ?v_136) (and (and (and (= x_122 1) ?v_134) (xor x_102 x_116)) (= x_111 ?v_140))) (and (and (and (= x_122 2) ?v_134) (= x_102 x_116)) ?v_136))) (or (or (and (and (and (= x_123 0) (not ?v_137)) (or (not (<= x_99 ?v_130)) (= x_118 x_13))) ?v_138) (and (and (and (= x_123 1) ?v_137) (xor x_13 x_17)) (= x_113 (+ ?v_130 x_81)))) (and (and (and (= x_123 2) ?v_137) (= x_13 x_17)) ?v_138))) (or (or (and (and (and (= x_124 0) ?v_139) (or (not (<= x_101 ?v_135)) (= x_18 x_15))) ?v_142) (and (and (and (= x_124 1) ?v_134) (not ?v_141)) (= x_115 ?v_140))) (and (and (and (= x_124 2) ?v_134) ?v_141) ?v_142))) (or (and (and (and (and (and (and (and (and (and (= x_103 0) (= x_12 x_93)) (= ?v_143 x_86)) (<= (+ ?v_143 x_68) x_100)) (or ?v_146 (= x_13 x_8))) (= x_104 x_90)) (= x_105 x_91)) (= x_98 x_84)) ?v_144) ?v_145) (and (and (and (and (and (and (and (and (and (= x_103 1) (= x_105 x_90)) (= ?v_143 x_84)) (<= (+ ?v_143 x_69) x_98)) (or (and (and (= x_106 0) ?v_144) ?v_145) (and (and (= x_106 1) (= x_88 x_91)) (= x_102 (not x_88))))) (= x_107 x_93)) (= x_12 x_8)) (= x_14 x_10)) (= x_100 x_86)) ?v_146))) (or (or (and (and (and (= x_108 0) ?v_152) (or (not (<= x_83 ?v_148)) (= x_107 x_88))) ?v_149) (and (and (and (= x_108 1) ?v_147) (xor x_88 x_102)) (= x_97 ?v_153))) (and (and (and (= x_108 2) ?v_147) (= x_88 x_102)) ?v_149))) (or (or (and (and (and (= x_109 0) (not ?v_150)) (or (not (<= x_85 ?v_143)) (= x_104 x_9))) ?v_151) (and (and (and (= x_109 1) ?v_150) (xor x_9 x_13)) (= x_99 (+ ?v_143 x_81)))) (and (and (and (= x_109 2) ?v_150) (= x_9 x_13)) ?v_151))) (or (or (and (and (and (= x_110 0) ?v_152) (or (not (<= x_87 ?v_148)) (= x_14 x_11))) ?v_155) (and (and (and (= x_110 1) ?v_147) (not ?v_154)) (= x_101 ?v_153))) (and (and (and (= x_110 2) ?v_147) ?v_154) ?v_155))) (or (and (and (and (and (and (and (and (and (and (= x_89 0) (= x_8 x_78)) (= ?v_156 x_63)) (<= (+ ?v_156 x_68) x_86)) (or ?v_159 (= x_9 x_4))) (= x_90 x_73)) (= x_91 x_75)) (= x_84 x_59)) ?v_157) ?v_158) (and (and (and (and (and (and (and (and (and (= x_89 1) (= x_91 x_73)) (= ?v_156 x_59)) (<= (+ ?v_156 x_69) x_84)) (or (and (and (= x_92 0) ?v_157) ?v_158) (and (and (= x_92 1) (= x_66 x_75)) (= x_88 (not x_66))))) (= x_93 x_78)) (= x_8 x_4)) (= x_10 x_6)) (= x_86 x_63)) ?v_159))) (or (or (and (and (and (= x_94 0) ?v_165) (or (not (<= x_56 ?v_161)) (= x_93 x_66))) ?v_162) (and (and (and (= x_94 1) ?v_160) (xor x_66 x_88)) (= x_83 ?v_166))) (and (and (and (= x_94 2) ?v_160) (= x_66 x_88)) ?v_162))) (or (or (and (and (and (= x_95 0) (not ?v_163)) (or (not (<= x_60 ?v_156)) (= x_90 x_5))) ?v_164) (and (and (and (= x_95 1) ?v_163) (xor x_5 x_9)) (= x_85 (+ ?v_156 x_81)))) (and (and (and (= x_95 2) ?v_163) (= x_5 x_9)) ?v_164))) (or (or (and (and (and (= x_96 0) ?v_165) (or (not (<= x_64 ?v_161)) (= x_10 x_7))) ?v_168) (and (and (and (= x_96 1) ?v_160) (not ?v_167)) (= x_87 ?v_166))) (and (and (and (= x_96 2) ?v_160) ?v_167) ?v_168))) (or (and (and (and (and (and (and (and (and (and (= x_71 0) (= x_4 x_72)) (= ?v_169 x_62)) (<= (+ ?v_169 x_68) x_63)) (or ?v_172 (= x_5 x_0))) (= x_73 x_74)) (= x_75 x_76)) (= x_59 x_58)) ?v_170) ?v_171) (and (and (and (and (and (and (and (and (and (= x_71 1) (= x_75 x_74)) (= ?v_169 x_58)) (<= (+ ?v_169 x_69) x_59)) (or (and (and (= x_77 0) ?v_170) ?v_171) (and (and (= x_77 1) (= x_67 x_76)) (= x_66 (not x_67))))) (= x_78 x_72)) (= x_4 x_0)) (= x_6 x_2)) (= x_63 x_62)) ?v_172))) (or (or (and (and (and (= x_79 0) ?v_178) (or (not (<= x_57 ?v_174)) (= x_78 x_67))) ?v_175) (and (and (and (= x_79 1) ?v_173) (xor x_67 x_66)) (= x_56 ?v_179))) (and (and (and (= x_79 2) ?v_173) (= x_67 x_66)) ?v_175))) (or (or (and (and (and (= x_80 0) (not ?v_176)) (or (not (<= x_61 ?v_169)) (= x_73 x_1))) ?v_177) (and (and (and (= x_80 1) ?v_176) (xor x_1 x_5)) (= x_60 (+ ?v_169 x_81)))) (and (and (and (= x_80 2) ?v_176) (= x_1 x_5)) ?v_177))) (or (or (and (and (and (= x_82 0) ?v_178) (or (not (<= x_65 ?v_174)) (= x_6 x_3))) ?v_181) (and (and (and (= x_82 1) ?v_173) (not ?v_180)) (= x_64 ?v_179))) (and (and (and (= x_82 2) ?v_173) ?v_180) ?v_181))) (xor x_259 x_260)) (not (= x_265 x_257))))))))))))))))))))
(check-sat)
(exit)
